# Objective value = 0
A_0_0 0
A_1_0 2.5062656641604012e-02
A_1_1 2.5062656641604012e-02
A_2_0 0
A_2_1 -6.0394736842105279e-01
A_2_2 0
A_3_0 -2.5062656641604012e-02
A_3_1 5.7518796992481214e-01
A_3_2 5.7518796992481214e-01
A_3_3 -2.5062656641604012e-02
z1_0 0
z2_0 0
z3_0 0
z4_0 0
z11_0 0
z22_0 0
z33_0 0
z44_0 0
z1_1 0
z2_1 0
z3_1 0
z4_1 0
z11_1 0
z22_1 0
z33_1 0
z44_1 0
z1_2 0
z2_2 0
z3_2 0
z4_2 0
z11_2 0
z22_2 0
z33_2 0
z44_2 0
z1_3 0
z2_3 0
z3_3 0
z4_3 0
z11_3 0
z22_3 0
z33_3 0
z44_3 0
z1_4 0
z2_4 0
z3_4 0
z4_4 0
z11_4 0
z22_4 0
z33_4 0
z44_4 0
z1_5 0
z2_5 0
z3_5 0
z4_5 0
z11_5 0
z22_5 0
z33_5 0
z44_5 0
z1_6 0
z2_6 0
z3_6 0
z4_6 0
z11_6 0
z22_6 0
z33_6 0
z44_6 0
z1_7 0
z2_7 0
z3_7 0
z4_7 0
z11_7 0
z22_7 0
z33_7 0
z44_7 0
z1_8 0
z2_8 0
z3_8 0
z4_8 0
z11_8 0
z22_8 0
z33_8 0
z44_8 0
z1_9 0
z2_9 0
z3_9 0
z4_9 0
z11_9 0
z22_9 0
z33_9 0
z44_9 0
z1_10 0
z2_10 0
z3_10 0
z4_10 0
z11_10 0
z22_10 0
z33_10 0
z44_10 0
z1_11 0
z2_11 0
z3_11 0
z4_11 0
z11_11 0
z22_11 0
z33_11 0
z44_11 0
z1_12 0
z2_12 0
z3_12 0
z4_12 0
z11_12 0
z22_12 0
z33_12 0
z44_12 0
z1_13 0
z2_13 0
z3_13 0
z4_13 0
z11_13 0
z22_13 0
z33_13 0
z44_13 0
z1_14 0
z2_14 0
z3_14 0
z4_14 0
z11_14 0
z22_14 0
z33_14 0
z44_14 0
z1_15 0
z2_15 0
z3_15 0
z4_15 0
z11_15 0
z22_15 0
z33_15 0
z44_15 0
z1_16 0
z2_16 0
z3_16 0
z4_16 0
z11_16 0
z22_16 0
z33_16 0
z44_16 0
z1_17 0
z2_17 0
z3_17 0
z4_17 0
z11_17 0
z22_17 0
z33_17 0
z44_17 0
z1_18 0
z2_18 0
z3_18 0
z4_18 0
z11_18 0
z22_18 0
z33_18 0
z44_18 0
z1_19 0
z2_19 0
z3_19 0
z4_19 0
z11_19 0
z22_19 0
z33_19 0
z44_19 0
z1_20 0
z2_20 0
z3_20 0
z4_20 0
z11_20 0
z22_20 0
z33_20 0
z44_20 0
norm1_ 0
norm2_ 0
norm3_ 0
norm4_ 0
norm11_ 0
norm22_ 0
norm33_ 0
norm44_ 0
